\ENCODING=ISO-8859-1
\Problem name: UCP

Minimize
 obj: 7203.3386 t_V_10 + 27989.3544 t_V_0 + 27403.6944 t_V_1 + 23046.084 t_V_2
      + 31721.8344 t_V_3 + 42974.0568 t_V_4 + 43530.9576 t_V_5
      + 46681.8624 t_V_6 + 21967.032 t_V_7 + 31885.3176 t_V_8
      + 30861.8904 t_V_9 + 21830.5914 t_V_11 + 23046.084 t_V_12
      + 18792.4034 t_V_13 + 23444.6141 t_V_14 + 42982.7072 t_V_16
      + 6531.051 t_V_17 + 10882.4392 t_V_18 + 3951.7363 t_V_19
Subject To
 _EqTimeSite(0,0)#0:    t_V_0 - t_W_0 >= 0
 _EqTimeSite(0,1)#1:    t_V_0 - t_W_1 >= 0
 _EqTimeSite(0,2)#2:    t_V_0 - t_W_2 >= 0
 _EqTimeSite(0,3)#3:    t_V_0 - t_W_3 >= 0
 _EqTimeSite(0,4)#4:    t_V_0 - t_W_4 >= 0
 _EqTimeSite(0,5)#5:    t_V_0 - t_W_5 >= 0
 _EqTimeSite(0,6)#6:    t_V_0 - t_W_6 >= 0
 _EqTimeSite(0,7)#7:    t_V_0 - t_W_7 >= 0
 _EqTimeSite(0,8)#8:    t_V_0 - t_W_8 >= 0
 _EqTimeSite(0,9)#9:    t_V_0 - t_W_9 >= 0
 _EqTimeSite(0,10)#10:  t_V_0 - t_W_10 >= 0
 _EqTimeSite(0,11)#11:  t_V_10 + t_V_0 - t_W_11 - t_W_35 >= 0
 _EqTimeSite(0,12)#12:  t_V_10 + t_V_0 - t_W_12 - t_W_36 >= 0
 _EqTimeSite(0,13)#13:  t_V_10 + t_V_0 - t_W_13 - t_W_37 >= 0
 _EqTimeSite(0,14)#14:  t_V_10 + t_V_0 - t_W_14 - t_W_38 >= 0
 _EqTimeSite(0,15)#15:  t_V_10 + t_V_0 - t_W_15 - t_W_39 >= 0
 _EqTimeSite(0,16)#16:  t_V_0 - t_W_16 >= 0
 _EqTimeSite(0,17)#17:  t_V_0 - t_W_17 >= 0
 _EqTimeSite(0,18)#18:  t_V_0 - t_W_18 >= 0
 _EqTimeSite(0,19)#19:  t_V_0 - t_W_19 >= 0
 _EqTimeSite(0,20)#20:  t_V_0 - t_W_20 >= 0
 _EqTimeSite(0,21)#21:  t_V_0 - t_W_21 >= 0
 _EqTimeSite(0,22)#22:  t_V_0 - t_W_22 >= 0
 _EqTimeSite(0,23)#23:  t_V_10 + t_V_0 - t_W_23 - t_W_47 >= 0
 _EqTimeSite(1,0)#24:   t_V_1 - t_W_0 >= 0
 _EqTimeSite(1,1)#25:   t_V_1 - t_W_1 >= 0
 _EqTimeSite(1,2)#26:   t_V_1 - t_W_2 >= 0
 _EqTimeSite(1,3)#27:   t_V_1 - t_W_3 + t_V_11 - t_W_27 >= 0
 _EqTimeSite(1,4)#28:   t_V_1 - t_W_4 + t_V_11 - t_W_28 >= 0
 _EqTimeSite(1,5)#29:   t_V_1 - t_W_5 + t_V_11 - t_W_29 >= 0
 _EqTimeSite(1,6)#30:   t_V_1 - t_W_6 + t_V_11 - t_W_30 >= 0
 _EqTimeSite(1,7)#31:   t_V_1 - t_W_7 + t_V_11 - t_W_31 >= 0
 _EqTimeSite(1,8)#32:   t_V_1 - t_W_8 + t_V_11 - t_W_32 >= 0
 _EqTimeSite(1,9)#33:   t_V_1 - t_W_9 + t_V_11 - t_W_33 >= 0
 _EqTimeSite(1,10)#34:  t_V_1 - t_W_10 + t_V_11 - t_W_34 >= 0
 _EqTimeSite(1,11)#35:  t_V_1 - t_W_11 + t_V_11 - t_W_35 >= 0
 _EqTimeSite(1,12)#36:  t_V_1 - t_W_12 + t_V_11 - t_W_36 >= 0
 _EqTimeSite(1,13)#37:  t_V_1 - t_W_13 + t_V_11 - t_W_37 >= 0
 _EqTimeSite(1,14)#38:  t_V_1 - t_W_14 + t_V_11 - t_W_38 >= 0
 _EqTimeSite(1,15)#39:  t_V_1 - t_W_15 + t_V_11 - t_W_39 >= 0
 _EqTimeSite(1,16)#40:  t_V_1 - t_W_16 + t_V_11 - t_W_40 >= 0
 _EqTimeSite(1,17)#41:  t_V_1 - t_W_17 + t_V_11 - t_W_41 >= 0
 _EqTimeSite(1,18)#42:  t_V_1 - t_W_18 + t_V_11 - t_W_42 >= 0
 _EqTimeSite(1,19)#43:  t_V_1 - t_W_19 + t_V_11 - t_W_43 >= 0
 _EqTimeSite(1,20)#44:  t_V_1 - t_W_20 + t_V_11 - t_W_44 >= 0
 _EqTimeSite(1,21)#45:  t_V_1 - t_W_21 + t_V_11 - t_W_45 >= 0
 _EqTimeSite(1,22)#46:  t_V_1 - t_W_22 >= 0
 _EqTimeSite(1,23)#47:  t_V_1 - t_W_23 >= 0
 _EqTimeSite(2,0)#48:   t_V_2 - t_W_0 + t_V_12 - t_W_24 >= 0
 _EqTimeSite(2,1)#49:   t_V_2 - t_W_1 + t_V_12 - t_W_25 >= 0
 _EqTimeSite(2,2)#50:   t_V_2 - t_W_2 + t_V_12 - t_W_26 >= 0
 _EqTimeSite(2,3)#51:   t_V_2 - t_W_3 + t_V_12 - t_W_27 >= 0
 _EqTimeSite(2,4)#52:   t_V_2 - t_W_4 + t_V_12 - t_W_28 >= 0
 _EqTimeSite(2,5)#53:   t_V_2 - t_W_5 + t_V_12 - t_W_29 >= 0
 _EqTimeSite(2,6)#54:   t_V_2 - t_W_6 + t_V_12 - t_W_30 >= 0
 _EqTimeSite(2,7)#55:   t_V_2 - t_W_7 + t_V_12 - t_W_31 >= 0
 _EqTimeSite(2,8)#56:   t_V_2 - t_W_8 + t_V_12 - t_W_32 >= 0
 _EqTimeSite(2,9)#57:   t_V_2 - t_W_9 + t_V_12 - t_W_33 >= 0
 _EqTimeSite(2,10)#58:  t_V_2 - t_W_10 + t_V_12 - t_W_34 >= 0
 _EqTimeSite(2,11)#59:  t_V_2 - t_W_11 + t_V_12 - t_W_35 >= 0
 _EqTimeSite(2,12)#60:  t_V_2 - t_W_12 + t_V_12 - t_W_36 >= 0
 _EqTimeSite(2,13)#61:  t_V_2 - t_W_13 + t_V_12 - t_W_37 >= 0
 _EqTimeSite(2,14)#62:  t_V_2 - t_W_14 + t_V_12 - t_W_38 >= 0
 _EqTimeSite(2,15)#63:  t_V_2 - t_W_15 + t_V_12 - t_W_39 >= 0
 _EqTimeSite(2,16)#64:  t_V_2 - t_W_16 + t_V_12 - t_W_40 >= 0
 _EqTimeSite(2,17)#65:  t_V_2 - t_W_17 + t_V_12 - t_W_41 >= 0
 _EqTimeSite(2,18)#66:  t_V_2 - t_W_18 + t_V_12 - t_W_42 >= 0
 _EqTimeSite(2,19)#67:  t_V_2 - t_W_19 + t_V_12 - t_W_43 >= 0
 _EqTimeSite(2,20)#68:  t_V_2 - t_W_20 + t_V_12 - t_W_44 >= 0
 _EqTimeSite(2,21)#69:  t_V_2 - t_W_21 + t_V_12 - t_W_45 >= 0
 _EqTimeSite(2,22)#70:  t_V_2 - t_W_22 + t_V_12 - t_W_46 >= 0
 _EqTimeSite(2,23)#71:  t_V_2 - t_W_23 + t_V_12 - t_W_47 >= 0
 _EqTimeSite(3,0)#72:   t_V_3 - t_W_0 + t_V_13 - t_W_24 >= 0
 _EqTimeSite(3,1)#73:   t_V_3 - t_W_1 >= 0
 _EqTimeSite(3,2)#74:   t_V_3 - t_W_2 >= 0
 _EqTimeSite(3,3)#75:   t_V_3 - t_W_3 >= 0
 _EqTimeSite(3,4)#76:   t_V_3 - t_W_4 >= 0
 _EqTimeSite(3,5)#77:   t_V_3 - t_W_5 >= 0
 _EqTimeSite(3,6)#78:   t_V_3 - t_W_6 + t_V_13 - t_W_30 >= 0
 _EqTimeSite(3,7)#79:   t_V_3 - t_W_7 + t_V_13 - t_W_31 >= 0
 _EqTimeSite(3,8)#80:   t_V_3 - t_W_8 + t_V_13 - t_W_32 >= 0
 _EqTimeSite(3,9)#81:   t_V_3 - t_W_9 + t_V_13 - t_W_33 >= 0
 _EqTimeSite(3,10)#82:  t_V_3 - t_W_10 + t_V_13 - t_W_34 >= 0
 _EqTimeSite(3,11)#83:  t_V_3 - t_W_11 + t_V_13 - t_W_35 >= 0
 _EqTimeSite(3,12)#84:  t_V_3 - t_W_12 + t_V_13 - t_W_36 >= 0
 _EqTimeSite(3,13)#85:  t_V_3 - t_W_13 + t_V_13 - t_W_37 >= 0
 _EqTimeSite(3,14)#86:  t_V_3 - t_W_14 + t_V_13 - t_W_38 >= 0
 _EqTimeSite(3,15)#87:  t_V_3 - t_W_15 >= 0
 _EqTimeSite(3,16)#88:  t_V_3 - t_W_16 >= 0
 _EqTimeSite(3,17)#89:  t_V_3 - t_W_17 >= 0
 _EqTimeSite(3,18)#90:  t_V_3 - t_W_18 >= 0
 _EqTimeSite(3,19)#91:  t_V_3 - t_W_19 >= 0
 _EqTimeSite(3,20)#92:  t_V_3 - t_W_20 + t_V_13 - t_W_44 >= 0
 _EqTimeSite(3,21)#93:  t_V_3 - t_W_21 + t_V_13 - t_W_45 >= 0
 _EqTimeSite(3,22)#94:  t_V_3 - t_W_22 + t_V_13 - t_W_46 >= 0
 _EqTimeSite(3,23)#95:  t_V_3 - t_W_23 + t_V_13 - t_W_47 >= 0
 _EqTimeSite(4,0)#96:   t_V_4 - t_W_0 >= 0
 _EqTimeSite(4,1)#97:   t_V_4 - t_W_1 >= 0
 _EqTimeSite(4,2)#98:   t_V_4 - t_W_2 >= 0
 _EqTimeSite(4,3)#99:   t_V_4 - t_W_3 >= 0
 _EqTimeSite(4,4)#100:  t_V_4 - t_W_4 >= 0
 _EqTimeSite(4,5)#101:  t_V_4 - t_W_5 >= 0
 _EqTimeSite(4,6)#102:  t_V_4 - t_W_6 >= 0
 _EqTimeSite(4,7)#103:  t_V_4 - t_W_7 >= 0
 _EqTimeSite(4,8)#104:  t_V_4 - t_W_8 + t_V_14 - t_W_32 >= 0
 _EqTimeSite(4,9)#105:  t_V_4 - t_W_9 + t_V_14 - t_W_33 >= 0
 _EqTimeSite(4,10)#106: t_V_4 - t_W_10 + t_V_14 - t_W_34 >= 0
 _EqTimeSite(4,11)#107: t_V_4 - t_W_11 + t_V_14 - t_W_35 >= 0
 _EqTimeSite(4,12)#108: t_V_4 - t_W_12 + t_V_14 - t_W_36 >= 0
 _EqTimeSite(4,13)#109: t_V_4 - t_W_13 + t_V_14 - t_W_37 >= 0
 _EqTimeSite(4,14)#110: t_V_4 - t_W_14 + t_V_14 - t_W_38 >= 0
 _EqTimeSite(4,15)#111: t_V_4 - t_W_15 + t_V_14 - t_W_39 >= 0
 _EqTimeSite(4,16)#112: t_V_4 - t_W_16 + t_V_14 - t_W_40 >= 0
 _EqTimeSite(4,17)#113: t_V_4 - t_W_17 + t_V_14 - t_W_41 >= 0
 _EqTimeSite(4,18)#114: t_V_4 - t_W_18 + t_V_14 - t_W_42 >= 0
 _EqTimeSite(4,19)#115: t_V_4 - t_W_19 + t_V_14 - t_W_43 >= 0
 _EqTimeSite(4,20)#116: t_V_4 - t_W_20 + t_V_14 - t_W_44 >= 0
 _EqTimeSite(4,21)#117: t_V_4 - t_W_21 >= 0
 _EqTimeSite(4,22)#118: t_V_4 - t_W_22 >= 0
 _EqTimeSite(4,23)#119: t_V_4 - t_W_23 >= 0
 _EqTimeSite(5,0)#120:  t_V_5 - t_W_0 >= 0
 _EqTimeSite(5,1)#121:  t_V_5 - t_W_1 >= 0
 _EqTimeSite(5,2)#122:  t_V_5 - t_W_2 >= 0
 _EqTimeSite(5,3)#123:  t_V_5 - t_W_3 >= 0
 _EqTimeSite(5,4)#124:  t_V_5 - t_W_4 >= 0
 _EqTimeSite(5,5)#125:  t_V_5 - t_W_5 >= 0
 _EqTimeSite(5,6)#126:  t_V_5 - t_W_6 >= 0
 _EqTimeSite(5,7)#127:  t_V_5 - t_W_7 >= 0
 _EqTimeSite(5,8)#128:  t_V_5 - t_W_8 >= 0
 _EqTimeSite(5,9)#129:  t_V_5 - t_W_9 >= 0
 _EqTimeSite(5,10)#130: t_V_5 - t_W_10 >= 0
 _EqTimeSite(5,11)#131: t_V_5 - t_W_11 >= 0
 _EqTimeSite(5,12)#132: t_V_5 - t_W_12 >= 0
 _EqTimeSite(5,13)#133: t_V_5 - t_W_13 >= 0
 _EqTimeSite(5,14)#134: t_V_5 - t_W_14 >= 0
 _EqTimeSite(5,15)#135: t_V_5 - t_W_15 >= 0
 _EqTimeSite(5,16)#136: t_V_5 - t_W_16 >= 0
 _EqTimeSite(5,17)#137: t_V_5 - t_W_17 >= 0
 _EqTimeSite(5,18)#138: t_V_5 - t_W_18 >= 0
 _EqTimeSite(5,19)#139: t_V_5 - t_W_19 >= 0
 _EqTimeSite(5,20)#140: t_V_5 - t_W_20 >= 0
 _EqTimeSite(5,21)#141: t_V_5 - t_W_21 >= 0
 _EqTimeSite(5,22)#142: t_V_5 - t_W_22 >= 0
 _EqTimeSite(5,23)#143: t_V_5 - t_W_23 >= 0
 _EqTimeSite(6,0)#144:  t_V_6 - t_W_0 >= 0
 _EqTimeSite(6,1)#145:  t_V_6 - t_W_1 + t_V_16 - t_W_25 >= 0
 _EqTimeSite(6,2)#146:  t_V_6 - t_W_2 + t_V_16 - t_W_26 >= 0
 _EqTimeSite(6,3)#147:  t_V_6 - t_W_3 + t_V_16 - t_W_27 >= 0
 _EqTimeSite(6,4)#148:  t_V_6 - t_W_4 + t_V_16 - t_W_28 >= 0
 _EqTimeSite(6,5)#149:  t_V_6 - t_W_5 + t_V_16 - t_W_29 >= 0
 _EqTimeSite(6,6)#150:  t_V_6 - t_W_6 + t_V_16 - t_W_30 >= 0
 _EqTimeSite(6,7)#151:  t_V_6 - t_W_7 + t_V_16 - t_W_31 >= 0
 _EqTimeSite(6,8)#152:  t_V_6 - t_W_8 + t_V_16 - t_W_32 >= 0
 _EqTimeSite(6,9)#153:  t_V_6 - t_W_9 + t_V_16 - t_W_33 >= 0
 _EqTimeSite(6,10)#154: t_V_6 - t_W_10 + t_V_16 - t_W_34 >= 0
 _EqTimeSite(6,11)#155: t_V_6 - t_W_11 + t_V_16 - t_W_35 >= 0
 _EqTimeSite(6,12)#156: t_V_6 - t_W_12 + t_V_16 - t_W_36 >= 0
 _EqTimeSite(6,13)#157: t_V_6 - t_W_13 + t_V_16 - t_W_37 >= 0
 _EqTimeSite(6,14)#158: t_V_6 - t_W_14 + t_V_16 - t_W_38 >= 0
 _EqTimeSite(6,15)#159: t_V_6 - t_W_15 + t_V_16 - t_W_39 >= 0
 _EqTimeSite(6,16)#160: t_V_6 - t_W_16 + t_V_16 - t_W_40 >= 0
 _EqTimeSite(6,17)#161: t_V_6 - t_W_17 + t_V_16 - t_W_41 >= 0
 _EqTimeSite(6,18)#162: t_V_6 - t_W_18 + t_V_16 - t_W_42 >= 0
 _EqTimeSite(6,19)#163: t_V_6 - t_W_19 + t_V_16 - t_W_43 >= 0
 _EqTimeSite(6,20)#164: t_V_6 - t_W_20 + t_V_16 - t_W_44 >= 0
 _EqTimeSite(6,21)#165: t_V_6 - t_W_21 + t_V_16 - t_W_45 >= 0
 _EqTimeSite(6,22)#166: t_V_6 - t_W_22 + t_V_16 - t_W_46 >= 0
 _EqTimeSite(6,23)#167: t_V_6 - t_W_23 >= 0
 _EqTimeSite(7,0)#168:  t_V_7 - t_W_0 >= 0
 _EqTimeSite(7,1)#169:  t_V_7 - t_W_1 >= 0
 _EqTimeSite(7,2)#170:  t_V_7 - t_W_2 >= 0
 _EqTimeSite(7,3)#171:  t_V_7 - t_W_3 >= 0
 _EqTimeSite(7,4)#172:  t_V_7 - t_W_4 + t_V_17 - t_W_28 >= 0
 _EqTimeSite(7,5)#173:  t_V_7 - t_W_5 + t_V_17 - t_W_29 >= 0
 _EqTimeSite(7,6)#174:  t_V_7 - t_W_6 + t_V_17 - t_W_30 >= 0
 _EqTimeSite(7,7)#175:  t_V_7 - t_W_7 + t_V_17 - t_W_31 >= 0
 _EqTimeSite(7,8)#176:  t_V_7 - t_W_8 >= 0
 _EqTimeSite(7,9)#177:  t_V_7 - t_W_9 >= 0
 _EqTimeSite(7,10)#178: t_V_7 - t_W_10 >= 0
 _EqTimeSite(7,11)#179: t_V_7 - t_W_11 >= 0
 _EqTimeSite(7,12)#180: t_V_7 - t_W_12 >= 0
 _EqTimeSite(7,13)#181: t_V_7 - t_W_13 >= 0
 _EqTimeSite(7,14)#182: t_V_7 - t_W_14 >= 0
 _EqTimeSite(7,15)#183: t_V_7 - t_W_15 >= 0
 _EqTimeSite(7,16)#184: t_V_7 - t_W_16 >= 0
 _EqTimeSite(7,17)#185: t_V_7 - t_W_17 >= 0
 _EqTimeSite(7,18)#186: t_V_7 - t_W_18 + t_V_17 - t_W_42 >= 0
 _EqTimeSite(7,19)#187: t_V_7 - t_W_19 + t_V_17 - t_W_43 >= 0
 _EqTimeSite(7,20)#188: t_V_7 - t_W_20 + t_V_17 - t_W_44 >= 0
 _EqTimeSite(7,21)#189: t_V_7 - t_W_21 >= 0
 _EqTimeSite(7,22)#190: t_V_7 - t_W_22 >= 0
 _EqTimeSite(7,23)#191: t_V_7 - t_W_23 >= 0
 _EqTimeSite(8,0)#192:  t_V_8 - t_W_0 >= 0
 _EqTimeSite(8,1)#193:  t_V_8 - t_W_1 >= 0
 _EqTimeSite(8,2)#194:  t_V_8 - t_W_2 >= 0
 _EqTimeSite(8,3)#195:  t_V_8 - t_W_3 >= 0
 _EqTimeSite(8,4)#196:  t_V_8 - t_W_4 >= 0
 _EqTimeSite(8,5)#197:  t_V_8 - t_W_5 >= 0
 _EqTimeSite(8,6)#198:  t_V_8 - t_W_6 >= 0
 _EqTimeSite(8,7)#199:  t_V_8 - t_W_7 >= 0
 _EqTimeSite(8,8)#200:  t_V_8 - t_W_8 >= 0
 _EqTimeSite(8,9)#201:  t_V_8 - t_W_9 + t_V_18 - t_W_33 >= 0
 _EqTimeSite(8,10)#202: t_V_8 - t_W_10 + t_V_18 - t_W_34 >= 0
 _EqTimeSite(8,11)#203: t_V_8 - t_W_11 + t_V_18 - t_W_35 >= 0
 _EqTimeSite(8,12)#204: t_V_8 - t_W_12 + t_V_18 - t_W_36 >= 0
 _EqTimeSite(8,13)#205: t_V_8 - t_W_13 >= 0
 _EqTimeSite(8,14)#206: t_V_8 - t_W_14 >= 0
 _EqTimeSite(8,15)#207: t_V_8 - t_W_15 >= 0
 _EqTimeSite(8,16)#208: t_V_8 - t_W_16 >= 0
 _EqTimeSite(8,17)#209: t_V_8 - t_W_17 >= 0
 _EqTimeSite(8,18)#210: t_V_8 - t_W_18 >= 0
 _EqTimeSite(8,19)#211: t_V_8 - t_W_19 + t_V_18 - t_W_43 >= 0
 _EqTimeSite(8,20)#212: t_V_8 - t_W_20 + t_V_18 - t_W_44 >= 0
 _EqTimeSite(8,21)#213: t_V_8 - t_W_21 + t_V_18 - t_W_45 >= 0
 _EqTimeSite(8,22)#214: t_V_8 - t_W_22 + t_V_18 - t_W_46 >= 0
 _EqTimeSite(8,23)#215: t_V_8 - t_W_23 >= 0
 _EqTimeSite(9,0)#216:  t_V_9 - t_W_0 >= 0
 _EqTimeSite(9,1)#217:  t_V_9 - t_W_1 >= 0
 _EqTimeSite(9,2)#218:  t_V_9 - t_W_2 >= 0
 _EqTimeSite(9,3)#219:  t_V_9 - t_W_3 >= 0
 _EqTimeSite(9,4)#220:  t_V_9 - t_W_4 >= 0
 _EqTimeSite(9,5)#221:  t_V_9 - t_W_5 >= 0
 _EqTimeSite(9,6)#222:  t_V_9 - t_W_6 >= 0
 _EqTimeSite(9,7)#223:  t_V_9 - t_W_7 >= 0
 _EqTimeSite(9,8)#224:  t_V_9 - t_W_8 >= 0
 _EqTimeSite(9,9)#225:  t_V_9 - t_W_9 >= 0
 _EqTimeSite(9,10)#226: t_V_9 - t_W_10 >= 0
 _EqTimeSite(9,11)#227: t_V_9 - t_W_11 >= 0
 _EqTimeSite(9,12)#228: t_V_9 - t_W_12 + t_V_19 - t_W_36 >= 0
 _EqTimeSite(9,13)#229: t_V_9 - t_W_13 + t_V_19 - t_W_37 >= 0
 _EqTimeSite(9,14)#230: t_V_9 - t_W_14 + t_V_19 - t_W_38 >= 0
 _EqTimeSite(9,15)#231: t_V_9 - t_W_15 >= 0
 _EqTimeSite(9,16)#232: t_V_9 - t_W_16 >= 0
 _EqTimeSite(9,17)#233: t_V_9 - t_W_17 >= 0
 _EqTimeSite(9,18)#234: t_V_9 - t_W_18 >= 0
 _EqTimeSite(9,19)#235: t_V_9 - t_W_19 >= 0
 _EqTimeSite(9,20)#236: t_V_9 - t_W_20 >= 0
 _EqTimeSite(9,21)#237: t_V_9 - t_W_21 >= 0
 _EqTimeSite(9,22)#238: t_V_9 - t_W_22 >= 0
 _EqTimeSite(9,23)#239: t_V_9 - t_W_23 >= 0
 ConvSite(0)#240:       t_V_10 + t_V_0  = 1
 ConvSite(1)#241:       t_V_1 + t_V_11  = 1
 ConvSite(2)#242:       t_V_2 + t_V_12  = 1
 ConvSite(3)#243:       t_V_3 + t_V_13  = 1
 ConvSite(4)#244:       t_V_4 + t_V_14  = 1
 ConvSite(5)#245:       t_V_5 + t_V_15  = 1
 ConvSite(6)#246:       t_V_6 + t_V_16  = 1
 ConvSite(7)#247:       t_V_7 + t_V_17  = 1
 ConvSite(8)#248:       t_V_8 + t_V_18  = 1
 ConvSite(9)#249:       t_V_9 + t_V_19  = 1
 ConvTime(0)#250:       t_W_0 + t_W_24  = 1
 ConvTime(1)#251:       t_W_1 + t_W_25  = 1
 ConvTime(2)#252:       t_W_2 + t_W_26  = 1
 ConvTime(3)#253:       t_W_3 + t_W_27  = 1
 ConvTime(4)#254:       t_W_4 + t_W_28  = 1
 ConvTime(5)#255:       t_W_5 + t_W_29  = 1
 ConvTime(6)#256:       t_W_6 + t_W_30  = 1
 ConvTime(7)#257:       t_W_7 + t_W_31  = 1
 ConvTime(8)#258:       t_W_8 + t_W_32  = 1
 ConvTime(9)#259:       t_W_9 + t_W_33  = 1
 ConvTime(10)#260:      t_W_10 + t_W_34  = 1
 ConvTime(11)#261:      t_W_11 + t_W_35  = 1
 ConvTime(12)#262:      t_W_12 + t_W_36  = 1
 ConvTime(13)#263:      t_W_13 + t_W_37  = 1
 ConvTime(14)#264:      t_W_14 + t_W_38  = 1
 ConvTime(15)#265:      t_W_15 + t_W_39  = 1
 ConvTime(16)#266:      t_W_16 + t_W_40  = 1
 ConvTime(17)#267:      t_W_17 + t_W_41  = 1
 ConvTime(18)#268:      t_W_18 + t_W_42  = 1
 ConvTime(19)#269:      t_W_19 + t_W_43  = 1
 ConvTime(20)#270:      t_W_20 + t_W_44  = 1
 ConvTime(21)#271:      t_W_21 + t_W_45  = 1
 ConvTime(22)#272:      t_W_22 + t_W_46  = 1
 ConvTime(23)#273:      t_W_23 + t_W_47  = 1
End
